\ This file has been generated by DOcplex
\ ENCODING=ISO-8859-1
\Problem name: random_problem.lp

Minimize
 obj: - 508 x0 - 254 x1 - 127 x2 + 276 x3 + 138 x4 + 69 x5 + 1256 x6 + 628 x7
      + 314 x8 - 484 x9 - 242 x10 - 121 x11 + 800 x12 + 400 x13 + 200 x14
      - 276 x15 - 138 x16 - 69 x17 - 472 x18 - 236 x19 - 118 x20 - 948 x21
      - 474 x22 - 237 x23 + [ 704 x0^2 + 704 x0*x1 + 352 x0*x2 + 896 x0*x3
      + 448 x0*x4 + 224 x0*x5 + 512 x0*x6 + 256 x0*x7 + 128 x0*x8 + 1152 x0*x9
      + 576 x0*x10 + 288 x0*x11 + 1984 x0*x12 + 992 x0*x13 + 496 x0*x14
      + 960 x0*x15 + 480 x0*x16 + 240 x0*x17 - 128 x0*x18 - 64 x0*x19
      - 32 x0*x20 + 1856 x0*x21 + 928 x0*x22 + 464 x0*x23 + 176 x1^2 + 176 x1*x2
      + 448 x1*x3 + 224 x1*x4 + 112 x1*x5 + 256 x1*x6 + 128 x1*x7 + 64 x1*x8
      + 576 x1*x9 + 288 x1*x10 + 144 x1*x11 + 992 x1*x12 + 496 x1*x13
      + 248 x1*x14 + 480 x1*x15 + 240 x1*x16 + 120 x1*x17 - 64 x1*x18
      - 32 x1*x19 - 16 x1*x20 + 928 x1*x21 + 464 x1*x22 + 232 x1*x23 + 44 x2^2
      + 224 x2*x3 + 112 x2*x4 + 56 x2*x5 + 128 x2*x6 + 64 x2*x7 + 32 x2*x8
      + 288 x2*x9 + 144 x2*x10 + 72 x2*x11 + 496 x2*x12 + 248 x2*x13
      + 124 x2*x14 + 240 x2*x15 + 120 x2*x16 + 60 x2*x17 - 32 x2*x18 - 16 x2*x19
      - 8 x2*x20 + 464 x2*x21 + 232 x2*x22 + 116 x2*x23 + 4512 x3^2 + 4512 x3*x4
      + 2256 x3*x5 + 3584 x3*x6 + 1792 x3*x7 + 896 x3*x8 + 1216 x3*x9
      + 608 x3*x10 + 304 x3*x11 + 7552 x3*x12 + 3776 x3*x13 + 1888 x3*x14
      - 1216 x3*x15 - 608 x3*x16 - 304 x3*x17 - 384 x3*x18 - 192 x3*x19
      - 96 x3*x20 + 3840 x3*x21 + 1920 x3*x22 + 960 x3*x23 + 1128 x4^2
      + 1128 x4*x5 + 1792 x4*x6 + 896 x4*x7 + 448 x4*x8 + 608 x4*x9 + 304 x4*x10
      + 152 x4*x11 + 3776 x4*x12 + 1888 x4*x13 + 944 x4*x14 - 608 x4*x15
      - 304 x4*x16 - 152 x4*x17 - 192 x4*x18 - 96 x4*x19 - 48 x4*x20
      + 1920 x4*x21 + 960 x4*x22 + 480 x4*x23 + 282 x5^2 + 896 x5*x6 + 448 x5*x7
      + 224 x5*x8 + 304 x5*x9 + 152 x5*x10 + 76 x5*x11 + 1888 x5*x12
      + 944 x5*x13 + 472 x5*x14 - 304 x5*x15 - 152 x5*x16 - 76 x5*x17
      - 96 x5*x18 - 48 x5*x19 - 24 x5*x20 + 960 x5*x21 + 480 x5*x22 + 240 x5*x23
      + 8448 x6^2 + 8448 x6*x7 + 4224 x6*x8 - 768 x6*x9 - 384 x6*x10
      - 192 x6*x11 + 7616 x6*x12 + 3808 x6*x13 + 1904 x6*x14 + 1664 x6*x15
      + 832 x6*x16 + 416 x6*x17 + 768 x6*x18 + 384 x6*x19 + 192 x6*x20
      + 5696 x6*x21 + 2848 x6*x22 + 1424 x6*x23 + 2112 x7^2 + 2112 x7*x8
      - 384 x7*x9 - 192 x7*x10 - 96 x7*x11 + 3808 x7*x12 + 1904 x7*x13
      + 952 x7*x14 + 832 x7*x15 + 416 x7*x16 + 208 x7*x17 + 384 x7*x18
      + 192 x7*x19 + 96 x7*x20 + 2848 x7*x21 + 1424 x7*x22 + 712 x7*x23
      + 528 x8^2 - 192 x8*x9 - 96 x8*x10 - 48 x8*x11 + 1904 x8*x12 + 952 x8*x13
      + 476 x8*x14 + 416 x8*x15 + 208 x8*x16 + 104 x8*x17 + 192 x8*x18
      + 96 x8*x19 + 48 x8*x20 + 1424 x8*x21 + 712 x8*x22 + 356 x8*x23
      + 2688 x9^2 + 2688 x9*x10 + 1344 x9*x11 + 4032 x9*x12 + 2016 x9*x13
      + 1008 x9*x14 + 1280 x9*x15 + 640 x9*x16 + 320 x9*x17 + 1600 x9*x18
      + 800 x9*x19 + 400 x9*x20 + 3456 x9*x21 + 1728 x9*x22 + 864 x9*x23
      + 672 x10^2 + 672 x10*x11 + 2016 x10*x12 + 1008 x10*x13 + 504 x10*x14
      + 640 x10*x15 + 320 x10*x16 + 160 x10*x17 + 800 x10*x18 + 400 x10*x19
      + 200 x10*x20 + 1728 x10*x21 + 864 x10*x22 + 432 x10*x23 + 168 x11^2
      + 1008 x11*x12 + 504 x11*x13 + 252 x11*x14 + 320 x11*x15 + 160 x11*x16
      + 80 x11*x17 + 400 x11*x18 + 200 x11*x19 + 100 x11*x20 + 864 x11*x21
      + 432 x11*x22 + 216 x11*x23 + 10112 x12^2 + 10112 x12*x13 + 5056 x12*x14
      + 896 x12*x15 + 448 x12*x16 + 224 x12*x17 + 448 x12*x18 + 224 x12*x19
      + 112 x12*x20 + 8704 x12*x21 + 4352 x12*x22 + 2176 x12*x23 + 2528 x13^2
      + 2528 x13*x14 + 448 x13*x15 + 224 x13*x16 + 112 x13*x17 + 224 x13*x18
      + 112 x13*x19 + 56 x13*x20 + 4352 x13*x21 + 2176 x13*x22 + 1088 x13*x23
      + 632 x14^2 + 224 x14*x15 + 112 x14*x16 + 56 x14*x17 + 112 x14*x18
      + 56 x14*x19 + 28 x14*x20 + 2176 x14*x21 + 1088 x14*x22 + 544 x14*x23
      + 2368 x15^2 + 2368 x15*x16 + 1184 x15*x17 - 64 x15*x18 - 32 x15*x19
      - 16 x15*x20 + 2752 x15*x21 + 1376 x15*x22 + 688 x15*x23 + 592 x16^2
      + 592 x16*x17 - 32 x16*x18 - 16 x16*x19 - 8 x16*x20 + 1376 x16*x21
      + 688 x16*x22 + 344 x16*x23 + 148 x17^2 - 16 x17*x18 - 8 x17*x19
      - 4 x17*x20 + 688 x17*x21 + 344 x17*x22 + 172 x17*x23 + 1856 x18^2
      + 1856 x18*x19 + 928 x18*x20 + 1536 x18*x21 + 768 x18*x22 + 384 x18*x23
      + 464 x19^2 + 464 x19*x20 + 768 x19*x21 + 384 x19*x22 + 192 x19*x23
      + 116 x20^2 + 384 x20*x21 + 192 x20*x22 + 96 x20*x23 + 4384 x21^2
      + 4384 x21*x22 + 2192 x21*x23 + 1096 x22^2 + 1096 x22*x23 + 274 x23^2 ]/2
Subject To
 c0: 4 x0 + 2 x1 + x2 + 4 x3 + 2 x4 + x5 + 4 x6 + 2 x7 + x8 + 4 x9 + 2 x10 + x11
     + 4 x12 + 2 x13 + x14 + 4 x15 + 2 x16 + x17 + 4 x18 + 2 x19 + x20 + 4 x21
     + 2 x22 + x23 = 7

Bounds
 0 <= x0 <= 1
 0 <= x1 <= 1
 0 <= x2 <= 1
 0 <= x3 <= 1
 0 <= x4 <= 1
 0 <= x5 <= 1
 0 <= x6 <= 1
 0 <= x7 <= 1
 0 <= x8 <= 1
 0 <= x9 <= 1
 0 <= x10 <= 1
 0 <= x11 <= 1
 0 <= x12 <= 1
 0 <= x13 <= 1
 0 <= x14 <= 1
 0 <= x15 <= 1
 0 <= x16 <= 1
 0 <= x17 <= 1
 0 <= x18 <= 1
 0 <= x19 <= 1
 0 <= x20 <= 1
 0 <= x21 <= 1
 0 <= x22 <= 1
 0 <= x23 <= 1

Binaries
 x0 x1 x2 x3 x4 x5 x6 x7 x8 x9 x10 x11 x12 x13 x14 x15 x16 x17 x18 x19 x20 x21
 x22 x23
End
